0 0 0 0
0 1 0 0
0 2 0 0
0 3 0 0
0 4 0 5
0 5 0 14
0 6 1 5
0 7 0 7
0 8 0 7
0 9 0 7
0 10 0 9
0 11 0 5
0 12 0 12
0 13 1 10
0 14 0 10
0 15 0 10
0 16 0 13
0 17 0 14
0 18 0 20
0 19 2 16
0 20 2 15
0 21 2 14
0 22 2 16
0 23 0 13
0 24 0 14
0 25 0 23
0 26 1 24
0 27 2 16
0 28 0 24
0 29 0 22
0 30 0 25
0 31 0 26
